  8
    -0.001402 !GC
 C          0.0000000000        0.0000000000        0.0000000000
 C          1.5012290226        0.0000000000        0.0000000000
 O          2.2072647890        0.9706342915        0.0000000000
 O          1.9943886925       -1.2470295029        0.0019386044
 H         -0.3711225168       -0.5089962798       -0.8834824081
 H         -0.3440639770        1.0331872341       -0.0360728954
 H         -0.3694533593       -0.4438520166        0.9185997691
 H          2.9640479854       -1.2278234337        0.0055218394
  8
    -0.001012 !GC
 C          0.0000000000        0.0000000000        0.0000000000
 C          1.5012616995        0.0000000000        0.0000000000
 O          2.2072325246        0.9705946301        0.0000000000
 O          1.9945059496       -1.2470334992       -0.0026076530
 H         -0.3470709083       -0.4262372217       -0.9402728849
 H         -0.3575774626        1.0266034665        0.0120425002
 H         -0.3797670567       -0.5756815677        0.8351166499
 H          2.9643192310       -1.2274118150       -0.0062683193
  8
    -0.000032 !GC
 C          0.0000000000        0.0000000000        0.0000000000
 C          1.5012383589        0.0000000000        0.0000000000
 O          2.2072845775        0.9706369854        0.0000000000
 O          1.9943948890       -1.2470308947       -0.0000022695
 H         -0.3599909186        1.0237089802        0.0645822749
 H         -0.3444827996       -0.4955643958        0.9070148470
 H         -0.3797868958       -0.5162483734       -0.8730287522
 H          2.9641261688       -1.2276529686        0.0009758672
