  8
        -14.45994252
 C         -1.4533550406       -0.0530810856       -0.0000078074
 C          0.0400889707        0.0994699032       -0.0000175469
 O          0.6436997946        1.1367646239        0.0000034850
 O          0.6576071512       -1.0909454005       -0.0000016563
 H         -1.9246116752        0.9243470917       -0.0016633526
 H         -1.7556485975       -0.6141309440        0.8808785290
 H         -1.7555171545       -0.6171673702       -0.8789920813
 H          1.6203039204       -0.9731281328        0.0000500032
