  8
  energy= 0.00000000000
 C         -0.9883645300       -0.0879871400        0.0991074500
 C          0.4364183300        0.2517416600       -0.1798581100
 O          0.7166122000        1.2276125700       -0.9257108800
 O          1.4539322900       -0.5378695500        0.3459734300
 H         -1.0617564400       -0.6730512300        1.0397437200
 H         -1.3954602400       -0.6918417700       -0.7382840500
 H         -1.5875200400        0.8407365500        0.2069728900
 H          2.4261384400       -0.3293410900        0.1520555500
