  8
  -14.459942520000000       0.33334509104542437      !
 C         -1.4533550406       -0.0530810856       -0.0000078074
 C          0.0400889707        0.0994699032       -0.0000175469
 O          0.6436997946        1.1367646239        0.0000034850
 O          0.6576071512       -1.0909454005       -0.0000016563
 H         -1.9246116752        0.9243470917       -0.0016633526
 H         -1.7556485975       -0.6141309440        0.8808785290
 H         -1.7555171545       -0.6171673702       -0.8789920813
 H          1.6203039204       -0.9731281328        0.0000500032
  8
  -14.459942500000000       0.33333803623900554      !
 C         -1.4533455877       -0.0531350092       -0.0000242928
 C          0.0400847097        0.0994795283        0.0005116955
 O          0.6437365664        1.1368363751       -0.0000592883
 O          0.6575394757       -1.0909605879       -0.0000269825
 H         -1.7546517515       -0.6310398775        0.8700035763
 H         -1.7561744157       -0.6005058034       -0.8893164959
 H         -1.9245381310        0.9242367247        0.0165035030
 H          1.6203194677       -0.9731403902       -0.0016291208
  8
  -14.459942440000001       0.33331687271557009      !
 C         -1.4533596566       -0.0530903055       -0.0000467713
 C          0.0400917549        0.0994631661       -0.0005442678
 O          0.6437094175        1.1367644328        0.0000058924
 O          0.6576077645       -1.0909482542       -0.0000327187
 H         -1.7542583069       -0.6459057573       -0.8601760351
 H         -1.9245601726        0.9238028109       -0.0327329197
 H         -1.7571026945       -0.5845998339        0.8986378657
 H          1.6203070113       -0.9731380981        0.0017398021
